NAME : XML50_2173_22
COMMENT : Generated as the XML100 dataset from the CVRPLIB
TYPE : CVRP
DIMENSION : 51
EDGE_WEIGHT_TYPE : EUC_2D
CAPACITY : 144
NODE_COORD_SECTION
1    500  500 
2    197  95  
3    855  492 
4    823  39  
5    100  553 
6    467  688 
7    52   534 
8    648  611 
9    858  460 
10   991  965 
11   460  533 
12   364  565 
13   412  227 
14   591  613 
15   718  422 
16   747  763 
17   549  653 
18   517  920 
19   371  903 
20   244  81  
21   915  48  
22   824  479 
23   937  589 
24   145  566 
25   491  370 
26   40   205 
27   871  57  
28   163  297 
29   233  462 
30   714  433 
31   456  241 
32   127  252 
33   560  503 
34   839  226 
35   449  788 
36   567  78  
37   210  94  
38   148  393 
39   873  63  
40   618  41  
41   294  35  
42   975  757 
43   224  413 
44   673  568 
45   332  690 
46   647  952 
47   215  617 
48   178  70  
49   336  37  
50   8    876 
51   877  297 
DEMAND_SECTION
1    0   
2    10  
3    10  
4    8   
5    4   
6    4   
7    4   
8    10  
9    7   
10   2   
11   58  
12   8   
13   4   
14   84  
15   3   
16   5   
17   83  
18   75  
19   2   
20   5   
21   5   
22   6   
23   74  
24   2   
25   2   
26   1   
27   8   
28   3   
29   6   
30   10  
31   10  
32   2   
33   4   
34   6   
35   8   
36   5   
37   2   
38   5   
39   8   
40   8   
41   7   
42   6   
43   2   
44   10  
45   4   
46   2   
47   6   
48   8   
49   10  
50   3   
51   9   
DEPOT_SECTION
1
-1
EOF
